c 9th DIMACS Implementation Challenge: Shortest Paths
c http://www.dis.uniroma1.it/~challenge9
c Sample node coords aux file
c
p sp co 6
c coordinates of 6 nodes
c
v 1 10 20
c node with id 1 has coordinate (10,20) in the plane
c
v 2 20 20
v 3 30 20
v 4 10 40
v 5 20 40
v 6 30 40
c arcs from here
p sp 6 8
c graph contains 6 nodes and 8 arcs
c node ids are numbers in 1..6
c
a 1 2 17
c arc from node 1 to node 2 of weight 17
c
a 1 3 10
a 2 4 2
a 3 5 1
a 4 3 3
a 4 6 3
a 5 2 4
a 5 6 20